n_boats=79;
n_periods=12;
capacity=[4,44,55,31,15,53,4,48,38,19,23,17,21,61,48,20,9,13,73,7,37,52,44,12,20,58,34,24,26,44,24,5,63,5,28,58,39,77,65,73,4,74,4,21,14,32,44,5,13,70,60,26,18,44,56,48,77,12,55,6,48,42,22,28,74,27,16,47,5,75,35,40,46,31,46,32,50,73,57];
crew=[1,24,29,6,6,15,1,25,7,11,8,8,8,34,24,9,3,7,22,3,21,21,16,6,6,19,7,7,14,21,9,2,32,3,12,25,20,37,32,35,1,24,2,7,2,16,9,3,4,17,15,14,8,14,24,13,24,3,30,1,13,18,6,14,41,13,3,22,1,15,17,21,18,9,11,19,25,18,14];
